nohup: ignoring input
original problem has 2025 variables (1800 bin, 0 int, 0 impl, 225 cont) and 230 constraints
original problem has 200 variables (200 bin, 0 int, 0 impl, 0 cont) and 17013 constraints
original problem has 200 variables (200 bin, 0 int, 0 impl, 0 cont) and 17013 constraints
original problem has 10772 variables (10771 bin, 0 int, 0 impl, 1 cont) and 12050 constraints
